
Welcome to IBM(R) ILOG(R) CPLEX(R) Interactive Optimizer 22.1.1.0
  with Simplex, Mixed Integer & Barrier Optimizers
5725-A06 5725-A29 5724-Y48 5724-Y49 5724-Y54 5724-Y55 5655-Y21
Copyright IBM Corp. 1988, 2022.  All Rights Reserved.

Type 'help' for a list of available commands.
Type 'help' followed by a command name for more
information on commands.

CPLEX> Selected objective sense:  MINIMIZE
Selected objective  name:  00000000
Selected RHS        name:  RHS1
Selected bound      name:  BOUND
Problem 'ee.mps' read.
Read time = 0.03 sec. (3.14 ticks)
CPLEX> New value for time limit in seconds: 7200
CPLEX> New value for parallel optimization mode: -1
CPLEX> New value for default parallel thread count: 40
CPLEX> New value for mixed integer optimality gap tolerance: 1e-13
CPLEX> Version identifier: 22.1.1.0 | 2022-11-28 | 9160aff4d
CPXPARAM_Threads                                 40
CPXPARAM_Parallel                                -1
CPXPARAM_TimeLimit                               7200
CPXPARAM_MIP_Tolerances_MIPGap                   1e-13
Found incumbent of value 0.000000 after 0.00 sec. (0.31 ticks)
Tried aggregator 2 times.
MIP Presolve eliminated 180 rows and 2745 columns.
MIP Presolve modified 5862 coefficients.
Aggregator did 713 substitutions.
Reduced MIP has 3624 rows, 7739 columns, and 28645 nonzeros.
Reduced MIP has 7739 binaries, 0 generals, 0 SOSs, and 0 indicators.
Presolve time = 0.07 sec. (68.57 ticks)
Probing time = 0.03 sec. (6.05 ticks)
Tried aggregator 1 time.
Detecting symmetries...
Reduced MIP has 3624 rows, 7739 columns, and 28645 nonzeros.
Reduced MIP has 7739 binaries, 0 generals, 0 SOSs, and 0 indicators.
Presolve time = 0.02 sec. (21.86 ticks)
Probing time = 0.02 sec. (5.87 ticks)
Clique table members: 18552.
MIP emphasis: balance optimality and feasibility.
MIP search method: dynamic search.
Parallel mode: opportunistic, using up to 40 threads.
Root relaxation solution time = 0.08 sec. (69.00 ticks)

        Nodes                                         Cuts/
   Node  Left     Objective  IInf  Best Integer    Best Bound    ItCnt     Gap

*     0+    0                            0.0000  -1.31000e+13              --- 
*     0+    0                      -3.29000e+12  -1.31000e+13           298.18%
*     0+    0                      -4.40000e+12  -1.31000e+13           197.73%
*     0+    0                      -5.50000e+12  -1.31000e+13           138.18%
*     0+    0                      -6.60000e+12  -1.31000e+13            98.48%
      0     0  -1.30900e+13    53  -6.60000e+12  -1.30900e+13     2074   98.33%
*     0+    0                      -1.08900e+13  -1.30900e+13            20.20%
*     0+    0                      -1.19900e+13  -1.30900e+13             9.17%
      0     0  -1.30900e+13   100  -1.19900e+13      Cuts: 56     2464    9.17%
*     0+    0                      -1.30900e+13  -1.30900e+13             0.00%
*     0+    0                      -1.30900e+13  -1.30900e+13             0.00%
      0     0  -1.30900e+13   178  -1.30900e+13      Cuts: 86     2626    0.00%
*     0+    0                      -1.30900e+13  -1.30900e+13             0.00%
*     0+    0                      -1.30900e+13  -1.30900e+13             0.00%
      0     2  -1.30900e+13   178  -1.30900e+13  -1.30900e+13     2626    0.00%
Elapsed time = 1.54 sec. (852.14 ticks, tree = 0.02 MB, solutions = 12)
    734    91  -1.30900e+13   125  -1.30900e+13  -1.30900e+13    25798    0.00%
   1311   863  -1.30900e+13    55  -1.30900e+13  -1.30900e+13   133119    0.00%
   2331   612  -1.30900e+13    76  -1.30900e+13  -1.30900e+13    99289    0.00%
*  2764   614      integral     0  -1.30900e+13  -1.30900e+13   102502    0.00%
   3683   711  -1.30900e+13    96  -1.30900e+13  -1.30900e+13   114299    0.00%
   5076   884  -1.30900e+13    62  -1.30900e+13  -1.30900e+13   136007    0.00%
   6391  1601  -1.30900e+13   106  -1.30900e+13  -1.30900e+13   381247    0.00%
   7777  1176  -1.30900e+13   107  -1.30900e+13  -1.30900e+13   267532    0.00%
   9120  1283  -1.30900e+13    48  -1.30900e+13  -1.30900e+13   296268    0.00%
  10325  1529  -1.30900e+13    56  -1.30900e+13  -1.30900e+13   362009    0.00%

Performing restart 1

Repeating presolve.
Tried aggregator 2 times.
MIP Presolve eliminated 204 rows and 558 columns.
MIP Presolve modified 1506 coefficients.
Aggregator did 37 substitutions.
Reduced MIP has 3359 rows, 7140 columns, and 25870 nonzeros.
Reduced MIP has 7140 binaries, 0 generals, 0 SOSs, and 0 indicators.
Presolve time = 0.06 sec. (62.02 ticks)
Tried aggregator 2 times.
MIP Presolve eliminated 40 rows and 142 columns.
MIP Presolve modified 22 coefficients.
Aggregator did 53 substitutions.
Reduced MIP has 3266 rows, 6924 columns, and 25121 nonzeros.
Reduced MIP has 6924 binaries, 0 generals, 0 SOSs, and 0 indicators.
Presolve time = 0.05 sec. (45.10 ticks)
Tried aggregator 1 time.
MIP Presolve eliminated 4 rows and 3 columns.
Reduced MIP has 3262 rows, 6920 columns, and 25110 nonzeros.
Reduced MIP has 6920 binaries, 0 generals, 0 SOSs, and 0 indicators.
Presolve time = 0.04 sec. (29.45 ticks)
Represolve time = 0.35 sec. (252.37 ticks)
  12349     0  -1.30900e+13   283  -1.30900e+13      Cuts: 26   751378    0.00%
  12349     0  -1.30900e+13   290  -1.30900e+13      Cuts: 39   751617    0.00%
  12349     0  -1.30900e+13   306  -1.30900e+13      Cuts: 31   751932    0.00%
  12349     0  -1.30900e+13   334  -1.30900e+13      Cuts: 28   752161    0.00%
  12349    10        cutoff        -1.30900e+13  -1.30900e+13   758577    0.00%
Elapsed time = 12.26 sec. (6371.90 ticks, tree = 0.02 MB, solutions = 27)
  12997    26  -1.30900e+13   147  -1.30900e+13  -1.30900e+13   783811    0.00%
  13148     4  -1.30900e+13   266  -1.30900e+13  -1.30900e+13   754314    0.00%

Clique cuts applied:  15
Cover cuts applied:  248
Flow cuts applied:  1
Mixed integer rounding cuts applied:  5
Zero-half cuts applied:  38
Lift and project cuts applied:  1
Gomory fractional cuts applied:  19

Root node processing (before b&c):
  Real time             =    0.97 sec. (851.33 ticks)
Parallel b&c, 40 threads:
  Real time             =   12.78 sec. (8013.82 ticks)
  Sync time (average)   =    3.74 sec.
  Wait time (average)   =    0.09 sec.
                          ------------
Total (root+branch&cut) =   13.76 sec. (8865.15 ticks)

Solution pool: 27 solutions saved.

MIP - Integer optimal solution:  Objective = -1.3089999191e+13
Solution time =   13.84 sec.  Iterations = 795209  Nodes = 13175
Deterministic time = 8865.18 ticks  (640.36 ticks/sec)

CPLEX> Solution 'p28' written to file 'ee.sol'.
CPLEX> 